
Gurobi 11.0.0 (win64) logging started Sat Jun 15 10:03:01 2024

Set parameter LogFile to value "./GurobiLog/stage_2_iter_17.log"
Gurobi Optimizer version 11.0.0 build v11.0.0rc2 (win64 - Windows 10.0 (18363.2))

CPU model: Intel(R) Core(TM) i7-8700 CPU @ 3.20GHz, instruction set [SSE2|AVX|AVX2]
Thread count: 6 physical cores, 12 logical processors, using up to 1 threads

Optimize a model with 1498 rows, 20467 columns and 123414 nonzeros
Coefficient statistics:
  Matrix range     [3e-03, 7e+03]
  Objective range  [1e-01, 2e+05]
  Bounds range     [1e+00, 6e+05]
  RHS range        [1e+00, 7e+04]
LP warm-start: use basis
Iteration    Objective       Primal Inf.    Dual Inf.      Time
       0    1.9282338e+04   6.314994e+03   0.000000e+00      0s
     222    2.5889039e+04   0.000000e+00   0.000000e+00      0s

Solved in 222 iterations and 0.02 seconds (0.03 work units)
Optimal objective  2.588903908e+04
